
Gurobi 7.5.2 (linux64) logging started Sat Jun 23 16:41:21 2018

Changed value of parameter LogFile to result/ilp/simNo_9-n_100-m_40-s_7-minVAF_0.05-cov_2000-k_1-fn_0.25-fp_0.0001-na_0.15.ILP.gurobiSolverLog
   Prev: gurobi.log  Default: 
Changed value of parameter TimeLimit to 86400.0
   Prev: 1e+100  Min: 0.0  Max: 1e+100  Default: 1e+100
Optimize a model with 1265601 rows, 330440 columns and 3489120 nonzeros
Variable types: 0 continuous, 330440 integer (330440 binary)
Coefficient statistics:
  Matrix range     [7e-04, 2e+00]
  Objective range  [1e+00, 2e+01]
  Bounds range     [1e+00, 1e+00]
  RHS range        [1e-01, 2e+00]
Found heuristic solution: objective -6177.576684
Presolve removed 386982 rows and 224962 columns (presolve time = 5s) ...
Presolve removed 387365 rows and 224962 columns (presolve time = 10s) ...
Presolve removed 388176 rows and 224962 columns (presolve time = 15s) ...
Presolve removed 388176 rows and 224962 columns (presolve time = 21s) ...
Presolve removed 388176 rows and 224962 columns (presolve time = 25s) ...
Presolve removed 388176 rows and 224962 columns (presolve time = 33s) ...
Presolve removed 388176 rows and 224962 columns (presolve time = 35s) ...
Presolve removed 388176 rows and 224962 columns
Presolve time: 35.14s
Presolved: 877425 rows, 105478 columns, 2441859 nonzeros
Variable types: 0 continuous, 105478 integer (105478 binary)
Presolved: 105478 rows, 982903 columns, 2547337 nonzeros

Presolve removed 105478 rows and 982903 columns

Root simplex log...

Iteration    Objective       Primal Inf.    Dual Inf.      Time
       0    2.4210702e+01   0.000000e+00   4.759600e+04     45s
   12790   -1.2837771e+02   0.000000e+00   0.000000e+00     51s
   12790   -1.2837771e+02   0.000000e+00   0.000000e+00     54s

Root relaxation: objective -1.283777e+02, 12790 iterations, 14.91 seconds
Total elapsed time = 55.16s
Total elapsed time = 69.83s
Total elapsed time = 77.45s

    Nodes    |    Current Node    |     Objective Bounds      |     Work
 Expl Unexpl |  Obj  Depth IntInf | Incumbent    BestBd   Gap | It/Node Time

     0     0 -128.37771    0  472 -6177.5767 -128.37771  97.9%     -   86s
H    0     0                    -137.8588905 -128.37771  6.88%     -   99s
     0     0 -130.89738    0  418 -137.85889 -130.89738  5.05%     -  120s
     0     0 -132.05355    0  408 -137.85889 -132.05355  4.21%     -  144s
     0     0 -132.38379    0  409 -137.85889 -132.38379  3.97%     -  159s
     0     0 -132.90290    0  370 -137.85889 -132.90290  3.59%     -  200s
     0     0 -132.90290    0  286 -137.85889 -132.90290  3.59%     -  416s
     0     0 -132.90290    0  214 -137.85889 -132.90290  3.59%     -  419s
     0     0 -132.97211    0  229 -137.85889 -132.97211  3.54%     -  421s
     0     0 -132.97211    0  231 -137.85889 -132.97211  3.54%     -  422s
     0     0 -133.94422    0  211 -137.85889 -133.94422  2.84%     -  423s
     0     0 -133.94422    0  210 -137.85889 -133.94422  2.84%     -  424s
     0     0 -134.19321    0  245 -137.85889 -134.19321  2.66%     -  425s
     0     0 -134.19321    0  250 -137.85889 -134.19321  2.66%     -  426s
     0     0 -134.23523    0  237 -137.85889 -134.23523  2.63%     -  428s
     0     0 -134.25287    0  271 -137.85889 -134.25287  2.62%     -  429s
     0     0 -134.25287    0  267 -137.85889 -134.25287  2.62%     -  430s
     0     0 -134.29762    0  258 -137.85889 -134.29762  2.58%     -  431s
     0     0 -134.49327    0  255 -137.85889 -134.49327  2.44%     -  432s
     0     0 -134.69332    0  231 -137.85889 -134.69332  2.30%     -  433s
     0     0 -135.05421    0  225 -137.85889 -135.05421  2.03%     -  436s
     0     0 -135.05421    0  243 -137.85889 -135.05421  2.03%     -  444s
     0     0 -135.05421    0  255 -137.85889 -135.05421  2.03%     -  445s
     0     0 -135.23497    0  255 -137.85889 -135.23497  1.90%     -  446s
     0     0 -135.66873    0  254 -137.85889 -135.66873  1.59%     -  447s
     0     0 -135.69740    0  254 -137.85889 -135.69740  1.57%     -  448s
     0     0 -135.69740    0  255 -137.85889 -135.69740  1.57%     -  448s
     0     0 -135.75153    0  255 -137.85889 -135.75153  1.53%     -  448s
     0     0 -135.84175    0  248 -137.85889 -135.84175  1.46%     -  449s
     0     0 -135.84175    0  256 -137.85889 -135.84175  1.46%     -  449s
     0     0 -135.84175    0  256 -137.85889 -135.84175  1.46%     -  450s
     0     0 -135.88121    0  290 -137.85889 -135.88121  1.43%     -  451s
     0     0 -135.88121    0  290 -137.85889 -135.88121  1.43%     -  451s
     0     0 -135.88910    0  287 -137.85889 -135.88910  1.43%     -  452s
     0     0 -135.88910    0  288 -137.85889 -135.88910  1.43%     -  453s
     0     0 -135.88910    0  289 -137.85889 -135.88910  1.43%     -  453s
     0     0 -135.89436    0  288 -137.85889 -135.89436  1.43%     -  454s
     0     0 -135.89436    0  288 -137.85889 -135.89436  1.43%     -  454s
     0     0 -136.18365    0  276 -137.85889 -136.18365  1.22%     -  455s
     0     0 -136.27505    0  250 -137.85889 -136.27505  1.15%     -  456s
     0     0 -136.28179    0  256 -137.85889 -136.28179  1.14%     -  456s
     0     0 -136.28179    0  256 -137.85889 -136.28179  1.14%     -  457s
     0     0 -136.58283    0  282 -137.85889 -136.58283  0.93%     -  457s
     0     0 -136.61407    0  313 -137.85889 -136.61407  0.90%     -  458s
     0     0 -136.61563    0  312 -137.85889 -136.61563  0.90%     -  458s
     0     0 -136.61669    0  336 -137.85889 -136.61669  0.90%     -  459s
     0     0 -136.61892    0  316 -137.85889 -136.61892  0.90%     -  459s
     0     0 -136.61892    0  317 -137.85889 -136.61892  0.90%     -  459s
     0     0 -136.94829    0  154 -137.85889 -136.94829  0.66%     -  460s
     0     0 -136.94829    0  146 -137.85889 -136.94829  0.66%     -  460s
     0     0 -137.02590    0  259 -137.85889 -137.02590  0.60%     -  462s
     0     0 -137.02590    0  125 -137.85889 -137.02590  0.60%     -  464s
     0     0 -137.02590    0  102 -137.85889 -137.02590  0.60%     -  464s
     0     0 -137.03991    0  101 -137.85889 -137.03991  0.59%     -  464s
     0     0 -137.27555    0   90 -137.85889 -137.27555  0.42%     -  464s
     0     0 -137.35221    0   96 -137.85889 -137.35221  0.37%     -  464s
     0     0     cutoff    0      -137.85889 -137.85889  0.00%     -  464s

Cutting planes:
  Gomory: 8
  Implied bound: 5
  Zero half: 34

Explored 1 nodes (40991 simplex iterations) in 464.81 seconds
Thread count was 1 (of 80 available processors)

Solution count 5: -137.859 -137.859 -137.859 ... -6177.58

Optimal solution found (tolerance 1.00e-04)
Best objective -1.378588904644e+02, best bound -1.378588904644e+02, gap 0.0000%
